
$molecule
read Cz.mol
$end

$rem
threads 8
jobtype	sp
method PBEh-3c
basis def2-mSVP
mem_static	512
mem_total	6096
sym_ignore	true
cis_n_roots             6
cis_singlets            true
cis_triplets            true
rpa                     false
$end

