$rem
threads 8
jobtype	sp
method PBEh-3c
basis def2-mSVP
mem_static	1024
mem_total	8000
sym_ignore	true
unrestricted true
scf_convergence	9
solvent_method	pcm
$end

$molecule
0 1
C         0.0250415695   -0.4037281803    0.0778105540
C         0.0209059204   -0.3908703706    1.4893074942
H         0.9686030967   -0.4032883839    2.0178161367
C        -1.1607115466   -0.3592635115    2.1951083292
C        -2.3988686102   -0.3334951187    1.4877829195
C        -2.4224284615   -0.3425984508    0.1188585387
H        -3.3791556307   -0.3189068413   -0.3965086047
C        -1.2210845110   -0.3786856888   -0.6214331556
C        -1.4700030195   -0.3418784301    3.6254691596
C        -0.7415620151   -0.3529668152    4.7880968627
H         0.3409042836   -0.3795424136    4.7833185884
C        -2.8779968481   -0.3070705405    3.7281734761
C        -3.5876953756   -0.2829796629    4.9249443516
C        -3.4863757784   -0.2996047610    2.4582100312
C        -4.8560680462   -0.2654939031    2.3777923989
H        -5.3734531915   -0.2570517042    1.4257239668
C        -1.4353822699   -0.3290592929    6.0217072452
H        -0.8557806406   -0.3380977613    6.9359170064
C        -2.8084900264   -0.2951058380    6.1069553265
H        -3.2910509150   -0.2775746891    7.0764836232
C        -5.6005290043   -0.2405053435    3.5787159609
H        -6.6813858271   -0.2136067962    3.5188201664
C        -5.0001376710   -0.2488958748    4.8174587933
H        -5.6110145144   -0.2288467101    5.7118459621
B        -1.2345046301   -0.3814119277   -2.1479889019
C         0.0700072949   -0.3851716693   -2.9388985060
C         0.0675514467   -0.3848275188   -4.3499063129
H        -0.8718504868   -0.3607569256   -4.8960688334
C         1.2430765870   -0.4173427996   -5.0489910963
C         2.4947161070   -0.4589320395   -4.3679358651
C         2.5155388919   -0.4588472811   -2.9925734165
H         3.4618538420   -0.4982522075   -2.4636748595
C         1.3176959959   -0.4173984563   -2.2470336398
C         1.4973079629   -0.4313063373   -6.4855358881
C         0.7122869437   -0.4080811086   -7.6115515908
H        -0.3687640636   -0.3642294491   -7.5542043407
C         2.8955996720   -0.4863935585   -6.6357139722
C         3.5407125110   -0.5227706146   -7.8699843368
C         3.5481717963   -0.5058146702   -5.3845826723
C         4.9192498104   -0.5655669546   -5.3794853542
H         5.4855374802   -0.5865344251   -4.4569700471
C         1.3417534631   -0.4422241307   -8.8768148109
H         0.7225865084   -0.4235473638   -9.7650500011
C         2.7096000018   -0.4985222059   -9.0169058290
H         3.1507100023   -0.5242653273  -10.0060931477
C         5.6035777179   -0.6029277018   -6.6182141484
H         6.6850174866   -0.6503032221   -6.6053908135
C         4.9541980732   -0.5828734397   -7.8310696862
H         5.5228033025   -0.6144697892   -8.7525941986
B         1.3521539217   -0.4338264185   -0.7065963753
C        -2.6064761279   -0.4136496428   -2.9302126274
C        -3.3467453602    0.7902988719   -3.1853624002
C        -4.5168305549    0.7347819845   -3.8834570019
H        -5.0968771405    1.6287839884   -4.0803327657
C        -5.0054527416   -0.5031530129   -4.3799097019
O        -6.1285028410   -0.4333299838   -5.0410487153
C        -4.2937683707   -1.6973360166   -4.1496058805
H        -4.6583391805   -2.6421674852   -4.5313682124
C        -3.1294716319   -1.6640778283   -3.4313316505
C        -6.7325915970   -1.6014990738   -5.5968390962
H        -7.6426610698   -1.2623185048   -6.0807212036
H        -6.9819999853   -2.3210151293   -4.8167473251
H        -6.0789795976   -2.0646489450   -6.3363151360
C        -2.8196082204    2.1181008341   -2.7304209798
H        -2.2522937304    1.9971698856   -1.8069239069
H        -3.6589526878    2.7789335304   -2.5031768856
C        -2.4172234146   -2.9496444459   -3.1429607291
H        -1.3401573789   -2.7819940320   -3.1207255979
H        -2.6148357846   -3.6597968248   -3.9487820812
C        -1.9346717977    2.7628865492   -3.7974294556
H        -1.0637085539    2.1468211285   -4.0182526377
H        -1.5746152771    3.7314934785   -3.4525390794
H        -2.4855507279    2.9183849249   -4.7259517602
C        -2.8691297174   -3.5520804414   -1.8105009982
H        -2.6506874934   -2.8846336346   -0.9784158451
H        -2.3438504153   -4.4890835050   -1.6297024142
H        -3.9399130453   -3.7589317653   -1.8120949816
C         2.7350669575   -0.4919114517    0.0518680223
C         3.5122516587    0.6574727651    0.2257335931
C         4.7304561343    0.6055420902    0.9045009026
H         5.2973910589    1.5213262949    1.0213977130
C         5.1941687044   -0.5987301397    1.4150797408
O         6.3591299270   -0.7489706495    2.0863165760
C         4.4321707990   -1.7501620378    1.2413567822
H         4.8007477165   -2.6896086218    1.6392543625
C         3.2189204556   -1.7049542320    0.5728272206
C         7.1509759332    0.3897227106    2.3065755006
H         8.0233529935    0.0599107442    2.8672508121
H         7.4914633795    0.8464430173    1.3716811113
H         6.6280524393    1.1516902209    2.8934794189
C         3.0264913531    1.9974582421   -0.2666636185
H         2.4758414786    1.8785456489   -1.2026041676
H         3.8837106194    2.6354078477   -0.4988601951
C         2.4566260012   -2.9918913536    0.3762230200
H         1.3817307375   -2.8058512021    0.4341911205
H         2.6900184258   -3.6804600817    1.1926226970
C         2.7775256274   -3.6674232253   -0.9559909249
H         2.5015074781   -3.0329781485   -1.7982414381
H         3.8430297395   -3.8855826698   -1.0396470416
H         2.2337572331   -4.6081985826   -1.0571918949
C         2.1336908458    2.7039570306    0.7515401828
H         1.2361769390    2.1209221575    0.9586237136
H         2.6570976420    2.8554380605    1.6966577118
H         1.8165692572    3.6805724784    0.3824029177
$end
$solvent
dielectric	2.38
$end

$pcm
theory iefpcm
$end
@@@

$rem
threads 8
jobtype sp 
method PBEh-3c
basis def2-mSVP
scf_guess	read
mem_static      1024
mem_total       8000
sym_ignore      true
unrestricted true
mom_start       1
scf_algorithm	diis
scf_max_cycles	250
solvent_method	pcm
geom_opt_tol_energy 25
geom_opt_tol_gradient 75
make_cube_files true
$end

$solvent
dielectric      2.38
$end

$pcm
theory iefpcm
$end

$occupied
1 2 3 4 5 6 7 8 9 10 11 12 13 14 15 16 17 18 19 20 21 22 23 24 25 26 27 28 29 30 31 32 33 34 35 36 37 38 39 40 41 42 43 44 45 46 47 48 49 50 51 52 53 54 55 56 57 58 59 60 61 62 63 64 65 66 67 68 69 70 71 72 73 74 75 76 77 78 79 80 81 82 83 84 85 86 87 88 89 90 91 92 93 94 95 96 97 98 99 100 101 102 103 104 105 106 107 108 109 110 111 112 113 114 115 116 117 118 119 120 121 122 123 124 125 126 127 128 129 130 131 132 133 134 135 136 137 138 139 140 141 142 143 144 145 146 147 148 149 150 151 152 153 154 155 156 157 158 159 160 161 162 163 164 165 166 167 168 169 170 171 172 173 174 175 176 177 178 179 180 181 182 183 184 185 186 187 188 189 190 191 192 193 194 195 196 197  199
1 2 3 4 5 6 7 8 9 10 11 12 13 14 15 16 17 18 19 20 21 22 23 24 25 26 27 28 29 30 31 32 33 34 35 36 37 38 39 40 41 42 43 44 45 46 47 48 49 50 51 52 53 54 55 56 57 58 59 60 61 62 63 64 65 66 67 68 69 70 71 72 73 74 75 76 77 78 79 80 81 82 83 84 85 86 87 88 89 90 91 92 93 94 95 96 97 98 99 100 101 102 103 104 105 106 107 108 109 110 111 112 113 114 115 116 117 118 119 120 121 122 123 124 125 126 127 128 129 130 131 132 133 134 135 136 137 138 139 140 141 142 143 144 145 146 147 148 149 150 151 152 153 154 155 156 157 158 159 160 161 162 163 164 165 166 167 168 169 170 171 172 173 174 175 176 177 178 179 180 181 182 183 184 185 186 187 188 189 190 191 192 193 194 195 196 197 198
$end


$plots
att. det. elec. hole and diff. dens for moms1opt_tol.out
156 -9.64 10.02
83 -6.60 5.73
170 -12.00 9.07
0 1 0 0
0  
$end


$molecule
0 1
C         0.0250415695   -0.4037281803    0.0778105540
C         0.0209059204   -0.3908703706    1.4893074942
H         0.9686030967   -0.4032883839    2.0178161367
C        -1.1607115466   -0.3592635115    2.1951083292
C        -2.3988686102   -0.3334951187    1.4877829195
C        -2.4224284615   -0.3425984508    0.1188585387
H        -3.3791556307   -0.3189068413   -0.3965086047
C        -1.2210845110   -0.3786856888   -0.6214331556
C        -1.4700030195   -0.3418784301    3.6254691596
C        -0.7415620151   -0.3529668152    4.7880968627
H         0.3409042836   -0.3795424136    4.7833185884
C        -2.8779968481   -0.3070705405    3.7281734761
C        -3.5876953756   -0.2829796629    4.9249443516
C        -3.4863757784   -0.2996047610    2.4582100312
C        -4.8560680462   -0.2654939031    2.3777923989
H        -5.3734531915   -0.2570517042    1.4257239668
C        -1.4353822699   -0.3290592929    6.0217072452
H        -0.8557806406   -0.3380977613    6.9359170064
C        -2.8084900264   -0.2951058380    6.1069553265
H        -3.2910509150   -0.2775746891    7.0764836232
C        -5.6005290043   -0.2405053435    3.5787159609
H        -6.6813858271   -0.2136067962    3.5188201664
C        -5.0001376710   -0.2488958748    4.8174587933
H        -5.6110145144   -0.2288467101    5.7118459621
B        -1.2345046301   -0.3814119277   -2.1479889019
C         0.0700072949   -0.3851716693   -2.9388985060
C         0.0675514467   -0.3848275188   -4.3499063129
H        -0.8718504868   -0.3607569256   -4.8960688334
C         1.2430765870   -0.4173427996   -5.0489910963
C         2.4947161070   -0.4589320395   -4.3679358651
C         2.5155388919   -0.4588472811   -2.9925734165
H         3.4618538420   -0.4982522075   -2.4636748595
C         1.3176959959   -0.4173984563   -2.2470336398
C         1.4973079629   -0.4313063373   -6.4855358881
C         0.7122869437   -0.4080811086   -7.6115515908
H        -0.3687640636   -0.3642294491   -7.5542043407
C         2.8955996720   -0.4863935585   -6.6357139722
C         3.5407125110   -0.5227706146   -7.8699843368
C         3.5481717963   -0.5058146702   -5.3845826723
C         4.9192498104   -0.5655669546   -5.3794853542
H         5.4855374802   -0.5865344251   -4.4569700471
C         1.3417534631   -0.4422241307   -8.8768148109
H         0.7225865084   -0.4235473638   -9.7650500011
C         2.7096000018   -0.4985222059   -9.0169058290
H         3.1507100023   -0.5242653273  -10.0060931477
C         5.6035777179   -0.6029277018   -6.6182141484
H         6.6850174866   -0.6503032221   -6.6053908135
C         4.9541980732   -0.5828734397   -7.8310696862
H         5.5228033025   -0.6144697892   -8.7525941986
B         1.3521539217   -0.4338264185   -0.7065963753
C        -2.6064761279   -0.4136496428   -2.9302126274
C        -3.3467453602    0.7902988719   -3.1853624002
C        -4.5168305549    0.7347819845   -3.8834570019
H        -5.0968771405    1.6287839884   -4.0803327657
C        -5.0054527416   -0.5031530129   -4.3799097019
O        -6.1285028410   -0.4333299838   -5.0410487153
C        -4.2937683707   -1.6973360166   -4.1496058805
H        -4.6583391805   -2.6421674852   -4.5313682124
C        -3.1294716319   -1.6640778283   -3.4313316505
C        -6.7325915970   -1.6014990738   -5.5968390962
H        -7.6426610698   -1.2623185048   -6.0807212036
H        -6.9819999853   -2.3210151293   -4.8167473251
H        -6.0789795976   -2.0646489450   -6.3363151360
C        -2.8196082204    2.1181008341   -2.7304209798
H        -2.2522937304    1.9971698856   -1.8069239069
H        -3.6589526878    2.7789335304   -2.5031768856
C        -2.4172234146   -2.9496444459   -3.1429607291
H        -1.3401573789   -2.7819940320   -3.1207255979
H        -2.6148357846   -3.6597968248   -3.9487820812
C        -1.9346717977    2.7628865492   -3.7974294556
H        -1.0637085539    2.1468211285   -4.0182526377
H        -1.5746152771    3.7314934785   -3.4525390794
H        -2.4855507279    2.9183849249   -4.7259517602
C        -2.8691297174   -3.5520804414   -1.8105009982
H        -2.6506874934   -2.8846336346   -0.9784158451
H        -2.3438504153   -4.4890835050   -1.6297024142
H        -3.9399130453   -3.7589317653   -1.8120949816
C         2.7350669575   -0.4919114517    0.0518680223
C         3.5122516587    0.6574727651    0.2257335931
C         4.7304561343    0.6055420902    0.9045009026
H         5.2973910589    1.5213262949    1.0213977130
C         5.1941687044   -0.5987301397    1.4150797408
O         6.3591299270   -0.7489706495    2.0863165760
C         4.4321707990   -1.7501620378    1.2413567822
H         4.8007477165   -2.6896086218    1.6392543625
C         3.2189204556   -1.7049542320    0.5728272206
C         7.1509759332    0.3897227106    2.3065755006
H         8.0233529935    0.0599107442    2.8672508121
H         7.4914633795    0.8464430173    1.3716811113
H         6.6280524393    1.1516902209    2.8934794189
C         3.0264913531    1.9974582421   -0.2666636185
H         2.4758414786    1.8785456489   -1.2026041676
H         3.8837106194    2.6354078477   -0.4988601951
C         2.4566260012   -2.9918913536    0.3762230200
H         1.3817307375   -2.8058512021    0.4341911205
H         2.6900184258   -3.6804600817    1.1926226970
C         2.7775256274   -3.6674232253   -0.9559909249
H         2.5015074781   -3.0329781485   -1.7982414381
H         3.8430297395   -3.8855826698   -1.0396470416
H         2.2337572331   -4.6081985826   -1.0571918949
C         2.1336908458    2.7039570306    0.7515401828
H         1.2361769390    2.1209221575    0.9586237136
H         2.6570976420    2.8554380605    1.6966577118
H         1.8165692572    3.6805724784    0.3824029177
$end
