$rem
threads 8
jobtype	sp
method PBEh-3c
basis def2-mSVP
mem_static	1024
mem_total	14000
sym_ignore	true
cis_n_roots             6
cis_singlets            true
cis_triplets		false
rpa                     false
state_analysis 		true
make_cube_files		true
cis_moments		true
sym_ignore              true
$end


$plots
att. det. elec. hole and diff. dens for gsopt.out
146 -14.83 3.83
169 -13.07 7.89
200 -12.77 11.23
0 0 0 2
1 2
$end


$molecule
0 1
C        -4.7521522544   -0.1710542294    4.4263450821
C        -5.4082626041   -0.7702771433    3.3614815748
C        -4.7075371224   -1.0741851724    2.1863029664
C        -3.3453336227   -0.7647934094    2.1052090714
C        -2.7093853255   -0.1409398424    3.1710313021
C        -3.4032374244    0.1553597765    4.3366023709
N        -2.7444710869    0.7601847121    5.4251073598
C        -6.8624055210   -1.1367410492    3.4805221188
C        -2.5667315591   -1.0568228612    0.8477699908
C        -1.5306243957    0.2257058032    5.8802510206
C        -0.5176276008    1.0596154428    6.3524680964
C        -4.0423789774    2.8048661638    5.3882477043
C        -3.3746922668    1.8127380225    6.1058429332
C        -4.6973621109    3.8272959341    6.0523569248
C        -4.6831256247    3.8919793241    7.4382703368
C        -4.0112038992    2.9115393227    8.1532623761
C        -3.3696972241    1.8731806323    7.4985261053
C        -1.3156219519   -1.1525321562    5.8573391268
C        -0.1097956147   -1.6793857552    6.2866281511
C         0.8934613451   -0.8496692662    6.7648485234
C         0.6770470177    0.5202592278    6.7988991995
C        -6.8778749469   -1.6831564950   -1.1237585027
C        -6.2882787874   -1.0054558877   -0.0298824444
B        -5.4467480607   -1.8044817369    1.0081880679
C        -5.3483493808   -3.3546019070    0.8920575309
C        -5.9310815272   -4.0214232475   -0.2110909765
B        -6.7008672517   -3.2202682178   -1.2933194849
C        -4.6830196179   -4.0926442056    1.8757908773
C        -4.5951758550   -5.4686632519    1.7674784364
C        -5.1703893867   -6.1284212624    0.6592805927
C        -5.8281232065   -5.4092078393   -0.3193924319
C        -7.6258438936   -0.9686285222   -2.0599775259
C        -7.8018691185    0.3925053351   -1.9081973797
C        -7.2170521209    1.0762140393   -0.8205513830
C        -6.4607830667    0.3766068239    0.1041754107
C        -3.2793595612   -6.4754739439    3.8027740159
C        -2.8249770124   -7.7075530416    4.3309401304
C        -3.0561083321   -8.9101468904    3.7058845530
C        -3.7728323536   -8.9483236187    2.4865264961
C        -4.2055661562   -7.7218666756    1.9941767297
C        -3.9762508375   -6.4842512859    2.6237755595
C        -4.0983826006  -10.0854316870    1.7076370284
C        -4.8030313262   -9.9405710647    0.5358945343
C        -5.2284411381   -8.6783817265    0.0589313609
C        -4.9260275815   -7.5637591239    0.7966606500
C        -7.8877125875    4.8498478566   -0.6586723454
C        -7.3336255387    3.6266241491   -0.2102077358
C        -7.5810064097    2.4918360373   -0.9348828942
C        -8.3772228644    2.6011400734   -2.0911873943
C        -8.9385056017    3.7836282248   -2.5567002998
C        -8.6650704851    4.9410676878   -1.7894896766
C        -8.5420786958    1.3535433406   -2.7186815461
C        -9.2985402942    1.2783603719   -3.8580363485
C        -9.8820639380    2.4664063171   -4.3559432214
C        -9.7154509768    3.6832542129   -3.7369255188
C        -9.1585133558   -4.8775197675   -3.7817684365
C        -8.6349750047   -4.3272719924   -2.6172100126
C        -7.2944592626   -3.9381779778   -2.5594171755
C        -6.4828780162   -4.1539715427   -3.6843900658
C        -7.0111342625   -4.7300227272   -4.8283764750
C        -8.3582567185   -5.0794340753   -4.8970517742
N        -8.8915468697   -5.6113663561   -6.0843915339
C        -9.5446986511   -4.1952705009   -1.4235199625
C        -5.0308769626   -3.7654333391   -3.6514924931
C        -8.5174588806   -5.0725092737   -7.3275553433
C        -8.3791328701   -3.6966822607   -7.5006126426
C       -11.0024192168   -6.5184125267   -6.8728682782
C        -9.8877327969   -6.6003760769   -6.0391624736
C       -11.9756021221   -7.5029801923   -6.8385968231
C       -11.8677505430   -8.5719922963   -5.9618394684
C       -10.7650389687   -8.6501684269   -5.1235321115
C        -9.7762403069   -7.6816077065   -5.1655606438
C        -8.2912367013   -5.9172952234   -8.4138932634
C        -7.9478079277   -5.3930153638   -9.6482195999
C        -7.8023991596   -4.0236244614   -9.8164674183
C        -8.0148334979   -3.1823510037   -8.7343233322
H        -5.2929057776    0.0388592707    5.3415069865
H        -1.6559121020    0.1048654638    3.0997614672
H        -7.0213727507   -2.2013169545    3.2930837966
H        -7.4756455884   -0.5933630197    2.7585202377
H        -7.2545777477   -0.9178782580    4.4730351611
H        -2.9218597639   -1.9876549232    0.3953723070
H        -1.5181679195   -1.2321133755    1.1006190330
C        -2.6550066956    0.0706669978   -0.1786097507
H        -0.6679480435    2.1313303901    6.3660835037
H        -4.0511221687    2.7659220663    4.3064950441
H        -5.2134386963    4.5864861214    5.4789350345
H        -5.1912350897    4.6951651669    7.9545481514
H        -3.9995265418    2.9417430458    9.2350926722
H        -2.8680841410    1.1015139977    8.0681001930
H        -2.0960296979   -1.8112325698    5.4987271621
H         0.0397015747   -2.7511319144    6.2583757678
H         1.8321764964   -1.2650647392    7.1056498966
H         1.4527154996    1.1819146112    7.1620695180
H        -4.2380850809   -3.5794893109    2.7202500221
H        -6.2684202870   -5.9159431568   -1.1720260743
H        -8.0712768796   -1.4891863192   -2.9005770139
H        -5.9978703329    0.8933392785    0.9378418471
H        -3.0695361414   -5.5568960601    4.3357859737
H        -2.2747525822   -7.6987248913    5.2625283217
H        -2.6881651763   -9.8284528938    4.1470305600
H        -3.7925222730  -11.0722538370    2.0331698658
H        -5.0421219591  -10.8208952821   -0.0466690533
H        -5.7783993644   -8.6186566898   -0.8723155367
H        -7.6901238199    5.7455872987   -0.0848826820
H        -6.7314042270    3.6097829159    0.6893637118
H        -9.0679372289    5.8999366635   -2.0913156583
H        -9.4594259602    0.3419785958   -4.3784109386
H       -10.4811990403    2.4116784151   -5.2555523916
H       -10.1825049587    4.5666038066   -4.1546440319
H       -10.2099799525   -5.1403688761   -3.8208789812
H        -6.3739382788   -4.8953663846   -5.6892341956
H       -10.5238243964   -3.8297540227   -1.7447558077
H        -9.1623095401   -3.4447460237   -0.7262859263
C        -9.7179730817   -5.5249000834   -0.6928079056
H        -4.5469980474   -3.9397016184   -4.6118888600
H        -4.4812451832   -4.3333397572   -2.8980389182
H        -4.9043570513   -2.7076598202   -3.4095426598
H        -8.5579541771   -3.0312657285   -6.6663130731
H       -11.1046540285   -5.6827303350   -7.5530335639
H       -12.8329133884   -7.4240631788   -7.4946388395
H       -12.6332843665   -9.3357379342   -5.9323460855
H       -10.6631276703   -9.4829487335   -4.4396756853
H        -8.9116768365   -7.7607217287   -4.5192314286
H        -8.3909083754   -6.9879400054   -8.2884375576
H        -7.7786653583   -6.0631593872  -10.4812119607
H        -7.5256561316   -3.6169301914  -10.7798892203
H        -7.9104063536   -2.1116155514   -8.8526459884
H       -10.1391683036   -6.2832436984   -1.3542023550
H       -10.3852056905   -5.4198657276    0.1632213513
H        -8.7618257591   -5.8984859502   -0.3251127582
H        -2.0636270088   -0.1625213900   -1.0647293477
H        -2.2824168980    1.0077276922    0.2361056809
H        -3.6824792257    0.2364853002   -0.5020268896
$end

