$rem
threads 8
jobtype	sp
method PBEh-3c
basis def2-mSVP
mem_static	1024
mem_total	14000
sym_ignore	true
cis_n_roots             6
cis_singlets            true
cis_triplets		false
rpa                     false
state_analysis 		true
make_cube_files		true
cis_moments		true
sym_ignore              true
$end

$plots
att. det. elec. hole and diff. dens for gsopt.out
181 -9.89 12.27
143 -9.16 9.22
81 -6.23 5.88
0 0 0 2
1 2
$end


$molecule
0 1
C        -2.5792191630    0.3991952231   -0.1815217904
C        -2.4221379803   -0.9947463761   -0.0162027116
C        -1.1609331440   -1.5539641155    0.0446976079
C        -0.0349708125   -0.7358738920   -0.0660292536
C        -0.1902133953    0.6581785055   -0.2438458488
C        -1.4706376865    1.2148224489   -0.2977736821
B         1.3836955468   -1.3575669101   -0.0072533564
C         2.6326372481   -0.4531925881   -0.1984462238
C         2.4829560451    0.9442212335   -0.3739151016
B         1.0596042083    1.5657287895   -0.4014827413
C         3.9066994151   -1.0207889218   -0.2168059203
C         5.0148645325   -0.2179251321   -0.4144361553
C         4.8728434927    1.1774642525   -0.5750290989
C         3.6114539575    1.7498136200   -0.5498596460
C         6.7102196235    2.9968900743   -1.0110939700
C         6.2071225470    1.7442175437   -0.7841300333
C         7.1045074935    0.6595634632   -0.7503259800
C         8.4758972011    0.7619836954   -0.9420528104
C         8.9700316750    2.0680468212   -1.1724385016
C         8.1053239707    3.1373214344   -1.2016488954
C         6.4294793905   -0.5538515123   -0.5282529738
C         7.1497138445   -1.7174285873   -0.4929995308
C         8.5494767519   -1.6442472443   -0.6800471251
C         9.2022202383   -0.4531880486   -0.8973509967
C        -6.1869905645    1.6981425537   -0.3028454458
C        -6.8166707956    0.4846601474   -0.1584186348
C        -6.0518835088   -0.6984563890   -0.0289069376
C        -4.6696888260   -0.5411505002   -0.0549859163
C        -4.0138570269    0.6941858453   -0.2036491950
C        -4.7779351621    1.8243830061   -0.3291636608
C        -6.5291208919   -2.0229574416    0.1210856434
C        -5.6409607325   -3.0667450873    0.2297040020
C        -4.2391197448   -2.8751458623    0.2014725022
C        -3.7529459833   -1.6013540598    0.0599656731
C         0.8335127237    3.1026601927   -0.6274410264
C         1.5358989252   -2.9006738668    0.2528810672
C         1.6028863423   -3.8156475312   -0.8326811702
C         1.7185902259   -5.2081310066   -0.5865407129
C         1.7633096873   -5.6577168416    0.7489417573
C         1.6872199896   -4.7673033047    1.7805750466
C         1.5687849360   -3.3795460998    1.5461490932
C         1.5443423966   -3.3781603332   -2.1789261545
C         1.6026114374   -4.2664658743   -3.2159346575
C         1.7247595839   -5.6471116684   -2.9644681576
C         1.7813531151   -6.1038031059   -1.6784966932
C         0.6490157981    3.9714076717    0.4814140058
C         0.3451422314    5.3397710761    0.2721036196
C         0.2413567202    5.8121691468   -1.0535273069
C         0.4207201691    4.9636902666   -2.1081814427
C         0.7121317113    3.5959594605   -1.9100762452
C         0.7405077054    3.4972667258    1.8122330742
C         0.5362069904    4.3324295184    2.8738915368
C         0.2342630290    5.6916999501    2.6602652304
C         0.1438065546    6.1820340186    1.3881684721
C         0.8349308494    2.6789757783   -3.0963513615
C         1.4475365375   -2.4370516127    2.7107402860
H        -1.0422859014   -2.6243754703    0.1725563323
H        -1.5920767172    2.2826944959   -0.4352495276
H         4.0182785192   -2.0921406821   -0.0907101035
H         3.4858192447    2.8188316807   -0.6802405264
H         6.0718990953    3.8704864859   -1.0522980846
H        10.0293214470    2.2277887465   -1.3304826000
H         8.5028234009    4.1274669385   -1.3813673257
H         6.6767431007   -2.6789405915   -0.3347919009
H         9.1234387697   -2.5612815814   -0.6550571579
H        10.2757055754   -0.4478914307   -1.0400525367
H        -6.7880306489    2.5925317888   -0.4011378098
H        -7.8987566663    0.4344004097   -0.1451727012
H        -4.3341426915    2.8047959991   -0.4458483768
H        -7.5947042397   -2.2163373370    0.1484238057
H        -6.0228635296   -4.0734409422    0.3400466629
H        -3.5838914133   -3.7329251327    0.2889663982
H         1.8555198290   -6.7192071766    0.9460534040
H         1.7164061462   -5.1264600309    2.8025663850
H         1.4485035880   -2.3192800660   -2.3920390398
H         1.5549212582   -3.9097954126   -4.2365061498
H         1.7716394196   -6.3421470355   -3.7926577602
H         1.8735807191   -7.1651603229   -1.4798348025
H         0.0116273710    6.8567797923   -1.2262231123
H         0.3311173702    5.3397045416   -3.1207831656
H         0.9731556345    2.4531026263    1.9909929939
H         0.6054033663    3.9501378570    3.8837682963
H         0.0737654876    6.3447680714    3.5078996241
H        -0.0887826827    7.2268518390    1.2195778447
H         0.8974331858    3.2334107543   -4.0324857906
H        -0.0284908130    2.0128970542   -3.1706389430
H         1.7218722312    2.0457614467   -3.0326577710
H         1.6626692983   -2.9331014884    3.6568108437
H         0.4381071647   -2.0245514186    2.7794521761
H         2.1336246577   -1.5918929581    2.6236188676
$end

