$rem
threads 8
jobtype	opt
method PBEh-3c
basis def2-mSVP
mem_static	1024
mem_total	14000
sym_ignore	true
cis_n_roots             3
cis_singlets            true 
cis_triplets		false
rpa                     false
cis_state_deriv         1
state_follow		true
$end

$molecule 
read incoords.mol
$end


