$rem
threads 4
jobtype	opt
method PBEh-3c
basis def2-mSVP
mem_static	1024
mem_total	6000
sym_ignore	true
cis_n_roots             6
cis_singlets            false
cis_triplets		true 
rpa                     false
cis_state_deriv         5
state_follow		true
$end

$molecule 
read s2opt.mol
$end


