$rem
threads 8
jobtype	sp
method PBEh-3c
basis def2-mSVP
mem_static	1024
mem_total	14000
sym_ignore	true
cis_n_roots             6
cis_singlets            false
cis_triplets		true
rpa                     false
state_analysis 		true
make_cube_files		true
cis_moments		true
sym_ignore              true
$end

$plots
att. det. elec. hole and diff. dens for gsopt.out
129 -5.36 11.54
167 -13.22 7.52
123 -9.31 7.02
0 0 0 2
1 2
$end


$molecule
0 1
C 
C  1 1.397664
H  2 1.084571 1 119.725952
C  2 1.381616 1 120.003887 3 -177.511618 0
C  4 1.412284 2 120.210396 1 0.959614 0
C  5 1.381528 4 120.216200 2 -1.606845 0
H  6 1.084810 5 120.442787 4 178.498753 0
C  6 1.397532 5 119.935282 4 0.661266 0
C  4 1.464241 2 131.537841 1 175.660400 0
C  9 1.369732 4 135.324312 2 2.379578 0
H  10 1.082716 9 121.889006 4 2.315836 0
C  9 1.406758 4 106.167699 2 -174.521523 0
C  12 1.390901 9 124.290372 4 176.572400 0
C  12 1.407043 9 111.440996 4 -0.100566 0
C  14 1.370302 12 118.506884 9 176.623700 0
H  15 1.082930 14 121.933443 12 -178.763990 0
C  10 1.415069 9 118.594297 4 -176.836516 0
H  17 1.082166 10 118.514509 9 179.917097 0
C  17 1.374808 10 122.469608 9 0.765682 0
H  19 1.083240 17 119.910353 10 178.954688 0
C  15 1.415162 14 118.603888 12 0.414258 0
H  21 1.082268 15 118.516320 14 -179.772206 0
C  21 1.374784 15 122.426262 14 -0.302299 0
H  23 1.083240 21 119.870705 15 -179.324082 0
B  8 1.553610 6 120.018413 5 176.778167 0
B  1 1.555749 2 119.893135 3 3.312281 0
C  26 1.556623 1 119.767102 2 -177.612295 0
C  27 1.398051 26 120.450889 1 178.976618 0
H  28 1.084365 27 119.480664 26 -3.127438 0
C  28 1.383561 27 120.051077 26 174.293198 0
C  30 1.411849 28 120.001868 27 -0.571607 0
C  31 1.381985 30 120.418393 28 1.285267 0
H  32 1.084421 31 120.411079 30 -178.301127 0
C  32 1.396308 31 119.976790 30 -1.155413 0
C  31 1.461229 30 108.324666 28 -173.802575 0
C  35 1.369605 31 134.941614 30 174.660333 0
H  36 1.083043 35 121.868910 31 3.959793 0
C  35 1.406654 31 106.170806 30 -0.592965 0
C  38 1.389875 35 124.074276 31 175.771949 0
C  38 1.407794 35 111.324939 31 -0.092927 0
C  40 1.369530 38 118.360473 35 177.358937 0
H  41 1.082846 40 121.868537 38 -178.902905 0
C  36 1.414551 35 118.467056 31 -175.050600 0
H  43 1.082223 36 118.561753 35 179.753900 0
C  43 1.374969 36 122.385439 35 0.474082 0
H  45 1.083110 43 119.792945 36 179.115764 0
C  39 1.415416 38 116.019776 35 -177.269458 0
H  47 1.083065 39 120.081615 38 -179.932963 0
C  47 1.375005 39 120.044199 38 0.881686 0
H  49 1.082134 47 118.989062 39 179.382071 0
C  26 1.569191 1 119.105923 2 8.415106 0
C  51 1.392273 26 122.650729 1 -101.271401 0
C  52 1.396161 51 120.754221 26 179.827438 0
H  53 1.083201 52 118.610996 51 179.965472 0
C  53 1.386078 52 120.128516 51 0.393921 0
O  55 1.349667 53 124.720200 52 179.406613 0
C  55 1.393557 53 119.420852 52 -0.240503 0
H  57 1.083747 55 118.776235 53 179.345938 0
C  57 1.382000 55 120.814872 53 -0.139390 0
C  56 1.401558 55 118.536656 53 -0.303924 0
H  60 1.088122 56 106.636896 55 -179.692974 0
H  60 1.094989 56 112.322035 55 -60.994489 0
H  60 1.095087 56 112.365665 55 61.612070 0
C  59 1.504788 57 119.513860 55 179.818540 0
H  64 1.089535 59 111.534863 57 -5.733025 0
H  64 1.091823 59 111.583237 57 114.501960 0
H  64 1.092429 59 111.670243 57 -125.838605 0
C  52 1.506370 51 120.634819 26 2.402588 0
H  68 1.093300 52 109.747177 51 -146.864748 0
H  68 1.093890 52 110.146969 51 -30.785957 0
C  68 1.527328 52 112.354160 51 91.323101 0
H  71 1.090098 68 111.321543 52 -61.593509 0
H  71 1.090530 68 111.124427 52 178.522803 0
H  71 1.090752 68 111.137040 52 58.364636 0
C  25 1.570850 8 120.000177 6 -1.419670 0
C  75 1.393652 25 120.907566 8 -95.288386 0
C  76 1.395507 75 120.585423 25 -179.475940 0
H  77 1.083435 76 118.431568 75 179.509133 0
C  77 1.385847 76 120.282320 75 -0.111746 0
O  79 1.349926 77 124.480412 76 179.624420 0
C  79 1.394074 77 119.418716 76 -0.130623 0
H  81 1.083494 79 118.873893 77 179.571992 0
C  81 1.382716 79 120.604039 77 0.188163 0
C  80 1.401847 79 118.483113 77 -1.204043 0
H  84 1.088082 80 106.650293 79 -179.170147 0
H  84 1.095117 80 112.412349 79 62.130628 0
H  84 1.095145 80 112.346938 79 -60.467545 0
C  83 1.502919 81 120.088246 79 179.754108 0
H  88 1.089357 83 111.862311 81 -5.662502 0
H  88 1.092290 83 111.375207 81 114.725329 0
H  88 1.092291 83 111.348997 81 -125.984054 0
C  76 1.508590 75 121.229776 25 2.903954 0
H  92 1.093563 76 110.484104 75 -26.001224 0
H  92 1.093688 76 109.600000 75 -141.846965 0
C  92 1.527338 76 112.432606 75 96.435817 0
H  95 1.090302 92 111.259877 76 -60.844033 0
H  95 1.090586 92 111.006081 76 179.183512 0
H  95 1.090679 92 111.166862 76 59.142006 0
$end

