$rem
threads 8
jobtype	sp
method PBEh-3c
basis def2-mSVP
mem_static	1024
mem_total	14000
sym_ignore	true
cis_n_roots             6
cis_singlets            false
cis_triplets		true
rpa                     false
state_analysis 		true
make_cube_files		true
cis_moments		true
sym_ignore              true
$end

$plots
att. det. elec. hole and diff. dens for gsopt.out
145 -14.73 3.85
171 -12.96 8.19
205 -12.87 11.70
0 0 0 2
1 2
$end


$molecule
0 1
C        -4.8807147160   -0.3362037883    4.4782297387
C        -5.4960592844   -0.8595179539    3.3492179712
C        -4.7794885567   -0.9862925886    2.1550965795
C        -3.4484837444   -0.5559468417    2.1095132390
C        -2.8540476236   -0.0097848203    3.2382817313
C        -3.5587229237    0.0900223158    4.4334735131
N        -2.9373906616    0.6064411778    5.5861284800
C        -6.9239686059   -1.3276648746    3.4166296145
C        -2.6695058866   -0.6901623737    0.8306585337
C        -1.6666096683    0.1465720389    5.9607703975
C        -0.7584419065    1.0068581847    6.5777248304
C        -4.4198618057    2.4956994344    5.9088744341
C        -3.6733383358    1.4451677704    6.4402444530
C        -5.1772828172    3.3037973331    6.7388693223
C        -5.1883898426    3.0922787388    8.1103282058
C        -4.4384255020    2.0535497593    8.6416564273
C        -3.6926333196    1.2278965498    7.8163637263
C        -1.2891337164   -1.1748399865    5.7203400760
C        -0.0272844216   -1.6168085677    6.0789345981
C         0.8710409554   -0.7628306612    6.7013501293
C         0.4928317608    0.5481765771    6.9522969381
C        -6.7376100034   -1.5007210445   -1.3038786513
C        -6.1675936852   -0.8419742985   -0.1877607573
B        -5.4368124692   -1.6727152556    0.9058888887
C        -5.3454801672   -3.2220208469    0.7693101184
C        -5.9168061477   -3.8705638195   -0.3507863013
B        -6.6470579732   -3.0460842330   -1.4432917889
C        -4.6984408024   -3.9781144621    1.7515014231
C        -4.6186997580   -5.3533255576    1.6259585782
C        -5.1888331375   -5.9950120125    0.5047250517
C        -5.8297700643   -5.2584311909   -0.4722356408
C        -7.3932829296   -0.7599203023   -2.2865310320
C        -7.4818200648    0.6135856763   -2.1691323152
C        -6.9142490449    1.2788221560   -1.0611071856
C        -6.2648167535    0.5488943696   -0.0788856651
C        -3.3323066627   -6.3951542117    3.6625540940
C        -2.8936601532   -7.6371499195    4.1807759092
C        -3.1286700126   -8.8303229390    3.5393171588
C        -3.8335455728   -8.8480495130    2.3126067339
C        -4.2510868586   -7.6123371967    1.8303988628
C        -4.0172379297   -6.3841154045    2.4765649066
C        -4.1603446306   -9.9731769271    1.5170865522
C        -4.8514992908   -9.8086379345    0.3398829758
C        -5.2617887900   -8.5374504814   -0.1262729734
C        -4.9581739093   -7.4340626973    0.6277161041
C        -7.3074545240    5.0947412484   -1.0203234570
C        -6.8763382707    3.8456694481   -0.5119566018
C        -7.1677727507    2.7136734987   -1.2246384399
C        -7.8836576012    2.8525053698   -2.4293256582
C        -8.3224882764    4.0611286993   -2.9553073469
C        -8.0070956265    5.2145638126   -2.1982379260
C        -8.1011527681    1.6053730678   -3.0412195124
C        -8.7862612193    1.5571768760   -4.2261924603
C        -9.2464586459    2.7719504330   -4.7849715402
C        -9.0286275023    3.9883411242   -4.1811025515
C        -9.2050242564   -4.8699807048   -3.6825336848
C        -8.6212272741   -4.2393655467   -2.5934071196
C        -7.3032774847   -3.7730605556   -2.6718110280
C        -6.5868470995   -3.9686665864   -3.8583689256
C        -7.1769827044   -4.6195356144   -4.9334681997
C        -8.4901992261   -5.0697259333   -4.8584657056
N        -9.0900472355   -5.7202472866   -5.9531921546
C        -9.4144846275   -4.0422554206   -1.3321973981
C        -5.1652559544   -3.4918893194   -3.9636243533
C        -8.8798108693   -5.2480497748   -7.2581569702
C        -8.9091367137   -3.8815808989   -7.5339193859
C       -11.0557972049   -7.0570920552   -6.4567341188
C        -9.8711253849   -6.8682237464   -5.7453331214
C       -11.8154187722   -8.1976286191   -6.2575343539
C       -11.4232049000   -9.1565658370   -5.3351980564
C       -10.2508398749   -8.9655665540   -4.6190317404
C        -9.4733938729   -7.8387573471   -4.8270558222
C        -8.6432468206   -6.1422268434   -8.3024734702
C        -8.4535735639   -5.6774731049   -9.5926754262
C        -8.4749863536   -4.3171621610   -9.8633152765
C        -8.6978828694   -3.4252057561   -8.8244339642
H        -5.4375018132   -0.2637864874    5.4050167515
H        -1.8259509727    0.3296230299    3.1939365155
H        -6.9993825156   -2.4046858205    3.2489056232
H        -7.5397117169   -0.8438904745    2.6551921096
H        -7.3741669984   -1.1145862214    4.3853658992
H        -2.6077868838   -1.7339487672    0.5126268323
H        -1.6501932661   -0.3201609789    0.9344158878
H        -3.1402460868   -0.1371714815    0.0149183982
H        -1.0364562425    2.0364836849    6.7617093240
H        -4.4099228919    2.6694520641    4.8404238206
H        -5.7552199257    4.1121133564    6.3098814872
H        -5.7772002840    3.7285485814    8.7571967151
H        -4.4455826192    1.8699604558    9.7082351031
H        -3.1261471389    0.4072748875    8.2374090928
H        -1.9861439652   -1.8551455895    5.2485034866
H         0.2496919911   -2.6443762157    5.8808977476
H         1.8535617216   -1.1143624203    6.9858850463
H         1.1843889743    1.2292049451    7.4310493696
H        -4.2607732569   -3.4802619243    2.6090542968
H        -6.2678302433   -5.7519682788   -1.3335174153
H        -7.8313708410   -1.2699727153   -3.1380238810
H        -5.8271304382    1.0469530314    0.7792911760
H        -3.1203707609   -5.4848645645    4.2088764267
H        -2.3528772440   -7.6437657058    5.1178908943
H        -2.7729362146   -9.7568840740    3.9731617539
H        -3.8658910639  -10.9662654765    1.8339725078
H        -5.0914192863  -10.6800258534   -0.2556512777
H        -5.8015676800   -8.4621337822   -1.0623330387
H        -7.0748353658    5.9880054056   -0.4558844722
H        -6.3290078853    3.8080465976    0.4213848674
H        -8.3151137926    6.1929704232   -2.5455521126
H        -8.9804783072    0.6226664825   -4.7384323092
H        -9.7886369604    2.7392790544   -5.7210356283
H        -9.4000100769    4.8929158033   -4.6467037738
H       -10.2322987862   -5.2099249803   -3.6184465113
H        -6.6086450023   -4.7782974624   -5.8425263539
H       -10.4363971065   -4.4050530411   -1.4376813889
H        -9.4676042735   -2.9875667127   -1.0533909639
H        -8.9630857251   -4.5734679116   -0.4913481458
H        -4.7394683688   -3.7070656394   -4.9429649786
H        -4.5282832293   -3.9695923909   -3.2160046006
H        -5.0933388939   -2.4139808305   -3.8038018589
H        -9.0993219680   -3.1781101909   -6.7337872034
H       -11.3805418367   -6.3098052697   -7.1693482912
H       -12.7310981084   -8.3291069575   -6.8196131895
H       -12.0241550534  -10.0420290835   -5.1770444289
H        -9.9278463949   -9.7080917785   -3.9008163934
H        -8.5519913879   -7.7064141913   -4.2752488700
H        -8.6120303001   -7.2055066218   -8.1019045692
H        -8.2735217612   -6.3867071065  -10.3903184443
H        -8.3197203270   -3.9565726892  -10.8712682665
H        -8.7233037439   -2.3612014030   -9.0212449814
$end

