$rem
threads 8
jobtype	sp
method PBEh-3c
basis def2-mSVP
mem_static	1024
mem_total	14000
sym_ignore	true
cis_n_roots             6
cis_singlets            true
cis_triplets		false
rpa                     false
state_analysis 		true
make_cube_files		true
cis_moments		true
sym_ignore              true
$end

$plots
att. det. elec. hole and diff. dens for gsopt.out
129 -5.65 11.32
170 -13.40 7.62
124 -9.28 7.19
0 0 0 2
1 2
$end


$molecule
0 1
C         2.6388824690   -1.5427374718    0.3864467337
C         3.5963291726   -1.2352641009   -0.6088854834
B         4.5596084153   -2.3520384924   -1.1085877275
C         4.6344288320   -3.7055219541   -0.3448479067
C         3.6659935497   -4.0169089443    0.6358699832
B         2.5747253305   -2.9721592865    1.0049029316
C         5.5759039232   -4.6675049502   -0.7221094155
C         5.5524477515   -5.9202478695   -0.1417786090
C         4.5595687370   -6.2443588038    0.8093555709
C         3.6294314137   -5.2987454209    1.1935349409
C         1.6755865103   -0.5927102236    0.7359154163
C         1.6665338649    0.6425001041    0.1181148837
C         2.6354612600    0.9605362082   -0.8594110571
C         3.5810782653    0.0202757237   -1.2249843340
C         7.3903308941   -7.4425558741   -1.2256324658
C         7.8629918768   -8.7762626041   -1.2355147809
C         7.3036060955   -9.7631953227   -0.4589047772
C         6.2157615603   -9.4622239492    0.3948312883
C         5.7892416180   -8.1382330806    0.4003709332
C         6.3465329959   -7.1231739156   -0.3982277386
C         5.4857390387  -10.3577223448    1.2126932247
C         4.4151774719   -9.9036679895    1.9459400734
C         4.0000677510   -8.5508564621    1.9253917121
C         4.6968888784   -7.6624605330    1.1489358231
C         2.1739725676    4.3037804878   -2.6750480210
C         2.8370777473    3.0897726160   -2.3754443021
C         2.3172767299    2.2855998555   -1.3965375358
C         1.1474201508    2.7063795487   -0.7359872317
C         0.4562364821    3.8761915193   -1.0285072642
C         1.0201476103    4.6940556896   -2.0368616290
C         0.7119132309    1.7454438816    0.1942395991
C        -0.4600493966    1.9637964256    0.8678624122
C        -1.1791520944    3.1521511753    0.6005603546
C        -0.7478027971    4.0843699197   -0.3135803934
C         7.2437137672   -1.3887913065   -3.7399422127
C         6.5524834077   -1.4922563468   -2.5324741916
C         5.3515768709   -2.1971167985   -2.4541366910
C         4.8518738993   -2.8072864421   -3.6207118321
C         5.5415273808   -2.6931536631   -4.8138689990
C         6.7382523747   -1.9853195070   -4.8854354781
C         7.1735293676   -0.8886112299   -1.2992635485
C         3.5345696395   -3.5434880412   -3.6200976555
O         7.3243527675   -1.9377839138   -6.1000658409
C         8.5252696725   -1.2285856422   -6.2373465219
C         0.4324949495   -3.8297537146    4.1152752824
C         1.5013009999   -3.4375506454    3.3278504431
C         1.3755735828   -3.3896080392    1.9299875156
C         0.1555752706   -3.7581547434    1.3569209287
C        -0.9157464667   -4.1502184497    2.1578790118
C        -0.7833924704   -4.1852390792    3.5381983966
C         2.7769135486   -3.0007142757    3.9988901027
C        -0.0202578873   -3.8160471904   -0.1405220904
O        -1.7655910414   -4.5471216039    4.3903186841
C        -3.0147119909   -4.8991301369    3.8595105991
H         6.2929579450   -4.4414227426   -1.5033315099
H         2.8479481978   -5.5543068953    1.9006534630
H         0.9112509008   -0.8487280166    1.4616131669
H         4.2856441482    0.2316476750   -2.0219018940
H         7.8492185793   -6.7090733554   -1.8765176909
H         8.6869396035   -9.0276679520   -1.8905092246
H         7.6873450410  -10.7748148268   -0.5118906207
H         5.7607776628  -11.4047777006    1.2509339774
H         3.8611523767  -10.6048368938    2.5564759611
H         3.1389236264   -8.2492079099    2.5085822751
H         2.5844978882    4.9376298065   -3.4500906809
H         3.7242061796    2.8131036663   -2.9312845445
H         0.5365349105    5.6218581362   -2.3166999336
H        -0.8522731133    1.2481460104    1.5798822777
H        -2.1080152246    3.3245986680    1.1284345285
H        -1.3392620972    4.9732924185   -0.4954524996
H         8.1755121521   -0.8366573049   -3.7568034446
H         5.1540121395   -3.1557707602   -5.7147096547
H         7.7038635728    0.0294765102   -1.5659318142
C         8.1415510514   -1.8482781900   -0.6100436423
H         6.3972958992   -0.5893621295   -0.5894881075
H         3.5520315655   -4.3139584529   -4.3950662044
C         2.3419153175   -2.6195005353   -3.8606707666
H         3.3936140207   -4.0793310338   -2.6779543459
H         8.8176525382   -1.3100366002   -7.2822625899
H         9.3280950701   -1.6446231428   -5.6196187290
H         8.4126079250   -0.1676566135   -5.9903923248
H         0.5294768888   -3.8605273854    5.1945719122
H        -1.8459339825   -4.4271365910    1.6760241750
H         3.6419301807   -3.2675686820    3.3852038885
H         2.9001481278   -3.5434201250    4.9394560396
C         2.7967428274   -1.4995322590    4.2767891958
H         0.6524478024   -3.1108111613   -0.6354985553
H        -1.0304679843   -3.4915062166   -0.4051364208
C         0.2229305429   -5.2166737707   -0.7002445511
H        -3.6545596340   -5.1440978012    4.7048132366
H        -3.4767692347   -4.0776434320    3.3018110156
H        -2.9578191567   -5.7737814005    3.2030413107
H         2.4287103190   -2.1086309543   -4.8200357386
H         2.2631062060   -1.8561220517   -3.0864934926
H         1.4089005660   -3.1851016122   -3.8646519684
H         1.2332854829   -5.5608241094   -0.4777127647
H         0.0973723778   -5.2314574617   -1.7838007517
H        -0.4730055481   -5.9393740725   -0.2728265420
H         2.7406832933   -0.9244543704    3.3525854924
H         3.7131353212   -1.2088159842    4.7914000209
H         1.9520171465   -1.2072203461    4.9011475380
H         8.9335583251   -2.1640549969   -1.2902506076
H         7.6283354363   -2.7448048727   -0.2623839388
H         8.6098012709   -1.3799249700    0.2563049692
$end

