$rem
threads 8
jobtype	sp
method PBEh-3c
basis def2-mSVP
mem_static	1024
mem_total	14000
sym_ignore	true
cis_n_roots             6
cis_singlets            false
cis_triplets		true
rpa                     false
state_analysis 		true
make_cube_files		true
cis_moments		true
sym_ignore              true
$end


$plots
att. det. elec. hole and diff. dens for gsopt.out
205 -17.99 6.56
180 -12.29 9.72
144 -9.19 9.27
0 0 0 2
1 2
$end


$molecule
0 1
C        -0.1823215190   -1.6404751322    1.1882268848
C        -1.3774531025   -1.4724268326    0.4997120637
C        -2.5811048335   -1.3799042944    1.2056766891
C        -2.5707448445   -1.4607145781    2.6033268757
C        -1.3721269146   -1.6592512900    3.2749496013
C        -0.1804145960   -1.7531457559    2.5701659909
N         1.0241301309   -2.0069242093    3.2532695431
C        -1.3861646074   -1.4197591563   -1.0032004133
C        -3.8639559962   -1.3866585921    3.3660527002
C         1.8067355760   -3.1304049574    3.0796174805
C         2.8512196000   -3.1130654313    4.0189259410
C         2.6744984865   -1.9220500817    4.8076144404
C         1.5336915514   -1.2728401183    4.3044171308
C         3.3582425751   -1.3682318310    5.8831278714
C         2.8974512069   -0.1863854643    6.4326101263
C         1.7673038366    0.4495193476    5.9112238206
C         1.0705621936   -0.0791064065    4.8405021601
C         1.6390138196   -4.1865457905    2.1895297436
C         2.5538042834   -5.2219255710    2.2428855450
C         3.6081829563   -5.2146891834    3.1596388423
C         3.7583666813   -4.1678305251    4.0500194597
C        -5.8172750534    0.0986679144   -0.6432157614
C        -4.5510248054    0.0682078542   -0.0099786205
B        -3.9502302559   -1.2925718570    0.4387426023
C        -4.7130670911   -2.6158629346    0.1407011554
C        -5.9861828960   -2.5779410615   -0.4743834171
B        -6.6082912108   -1.2174953778   -0.8819478645
C        -4.1519188928   -3.8457504022    0.4946930375
C        -4.8424246444   -5.0174133806    0.2467870120
C        -6.1188930804   -4.9767095728   -0.3566925893
C        -6.6816734438   -3.7660664125   -0.7123431175
C        -6.3594245384    1.3179812786   -1.0496260116
C        -5.6558792194    2.4893570102   -0.8403053996
C        -4.3903679198    2.4649351734   -0.2150264500
C        -3.8505806765    1.2590297757    0.2017073412
C        -3.4484383782   -7.0826205731    1.0677824664
C        -3.5035429209   -8.4936875937    1.1581808223
C        -4.5818979477   -9.2203737978    0.7115699990
C        -5.6919427105   -8.5593461191    0.1347753534
C        -5.6068391348   -7.1729656353    0.0568761022
C        -4.5101713962   -6.4186704133    0.5116369300
C        -6.8799401832   -9.1430545034   -0.3675037841
C        -7.8694771666   -8.3470137867   -0.8941972294
C        -7.7541631135   -6.9383207882   -0.9598381089
C        -6.6130598950   -6.3496731371   -0.4793733513
C        -2.6545588502    5.8553818702    0.2072718108
C        -2.7654068719    4.4496282018    0.3279484603
C        -3.8977982278    3.8420720314   -0.1441151972
C        -4.8953830044    4.6466798800   -0.7268986291
C        -4.8191013679    6.0268590617   -0.8583982391
C        -3.6385661220    6.6297165071   -0.3620613308
C        -5.9846336715    3.8726694791   -1.1642817516
C        -7.0487131959    4.4993330784   -1.7553462930
C        -7.0016805161    5.9050816649   -1.9004371232
C        -5.9304896691    6.6545223340   -1.4723588538
C       -10.4339232105   -0.9714684257   -1.3029888613
C        -9.1700647717   -0.9873331312   -0.7268169529
C        -8.0400619371   -1.1860717006   -1.5294727957
C        -8.1997864124   -1.3880831399   -2.9054942217
C        -9.4723395750   -1.3934801620   -3.4620149156
C       -10.5869454468   -1.1791722646   -2.6653478292
N       -11.8757280443   -1.1971704720   -3.2348051935
C        -9.0185268608   -0.7971448450    0.7556502469
C        -7.0007446010   -1.6409992422   -3.7758589328
C       -12.8791804005   -2.0862384383   -2.9002082131
C       -13.9810439409   -1.8692076737   -3.7440002637
C       -13.6170447996   -0.8008048136   -4.6324629217
C       -12.3086813331   -0.4190978595   -4.2916436011
C       -14.2751831752   -0.1693949690   -5.6820329566
C       -13.6231839568    0.8333000696   -6.3734498839
C       -12.3247584077    1.2082863414   -6.0180836059
C       -11.6503080652    0.5944102732   -4.9773949027
C       -12.8848529303   -3.1047591671   -1.9537348544
C       -14.0211933297   -3.8887255301   -1.8592270469
C       -15.1287503768   -3.6773895810   -2.6845405941
C       -15.1126206515   -2.6706752135   -3.6306064752
H         0.7534304506   -1.6988071488    0.6447840831
H        -1.3664804308   -1.7706107506    4.3527270657
H        -1.9506992648   -2.2564704453   -1.4223612164
H        -0.3795610093   -1.4659133445   -1.4167470107
H        -1.8538270369   -0.5052870484   -1.3729830435
H        -4.5044627118   -2.2439149511    3.1453735037
H        -4.4321702202   -0.4904598398    3.1081651399
H        -3.6992440010   -1.3715425203    4.4427581417
H         4.2357730973   -1.8577640791    6.2863342236
H         3.4154518270    0.2536766008    7.2738695214
H         1.4278677075    1.3762498895    6.3546485240
H         0.1976317854    0.4190611082    4.4398766809
H         0.8185221470   -4.2075355184    1.4844512583
H         2.4461362565   -6.0564526786    1.5620093932
H         4.3066557020   -6.0405662693    3.1753852055
H         4.5682616184   -4.1759823127    4.7684271293
H        -3.1770408326   -3.8785611796    0.9673761557
H        -7.6626128340   -3.7353634888   -1.1746315341
H        -7.3321726567    1.3395284955   -1.5297126967
H        -2.8839211664    1.2281231700    0.6925337789
H        -2.5767117750   -6.5597140441    1.4401158787
H        -2.6646573045   -9.0164949393    1.5982461617
H        -4.5819769358  -10.2997284544    0.8033883077
H        -7.0121045471  -10.2177909650   -0.3365729711
H        -8.7713721016   -8.8099495843   -1.2731434960
H        -8.5642666062   -6.3585888237   -1.3848261193
H        -1.7591417218    6.3352005057    0.5794045112
H        -1.9622112378    3.8853818825    0.7851944105
H        -3.5070957604    7.7023685077   -0.4305843871
H        -7.9133125128    3.9507495385   -2.1086275220
H        -7.8408256228    6.4053035499   -2.3657467021
H        -5.9398202874    7.7290225000   -1.6064727468
H       -11.3114206082   -0.7936912243   -0.6922838298
H        -9.6027505274   -1.5799978736   -4.5220009642
H        -9.9774273645   -0.6111870373    1.2382005696
H        -8.3642815124    0.0452656409    0.9878727655
H        -8.5820014848   -1.6815091453    1.2254625049
H        -7.2614940618   -1.6377273766   -4.8336571382
H        -6.5483260936   -2.6097592724   -3.5528707945
H        -6.2273252566   -0.8850786248   -3.6263166952
H       -15.2814962939   -0.4620814516   -5.9553325454
H       -14.1174758449    1.3329305649   -7.1958159515
H       -11.8318915066    1.9974120703   -6.5707241412
H       -10.6448945974    0.8941532148   -4.7146395419
H       -12.0308116844   -3.2911932313   -1.3167333566
H       -14.0483409465   -4.6888956634   -1.1310942620
H       -15.9995400766   -4.3113478578   -2.5839550722
H       -15.9646303398   -2.5145300649   -4.2808428676
$end

