$rem
threads 8
jobtype	opt
method PBEh-3c
basis def2-mSVP
mem_static	512
mem_total	6096
sym_ignore	true
$end

$molecule
0 1
C         -7.53453       17.34658        5.45553
C         -7.99708       15.97413        5.04603
C         -6.95533       14.94150        4.70886
O         -9.19726       15.70301        4.98832
H         -5.94697       15.34915        4.81229
H         -7.09423       14.61601        3.67478
H         -7.05838       14.09237        5.38925
H         -6.44401       17.41305        5.45303
H         -7.89338       17.55962        6.46568
H         -7.92923       18.08326        4.75121
$end

