$rem
threads 8
jobtype	opt
method PBEh-3c
basis def2-mSVP
mem_static	512
mem_total	6096
sym_ignore	true
$end

$molecule
0 1
C        -19.14123        9.29663       -7.40062
C        -16.85698        8.85892       -7.03766
C        -15.84458        8.41289       -5.98880
H        -15.86645        9.10130       -5.13539
O        -14.53992        8.39234       -6.56781
H        -16.10761        7.41429       -5.61961
C        -13.55881        7.98585       -5.62278
H        -13.52400        8.68523       -4.78190
H        -12.58378        7.98573       -6.11733
H        -13.76865        6.97374       -5.26358
O        -18.16153        8.88029       -6.45841
H        -19.17554        8.60588       -8.24863
H        -18.93017       10.31218       -7.74924
H        -20.11686        9.29261       -6.90726
H        -16.83593        8.17020       -7.89083
H        -16.59324        9.85718       -7.40728
$end

