%maxcore 1700
%pal nprocs 8 end
!PBEh-3c RIJCOSX OPT 

*xyzfile 0 1 incoords.xyz 

