$rem
threads 8
jobtype	opt
method PBEh-3c
basis def2-mSVP
mem_static	512
mem_total	6096
sym_ignore	true
solvent_method  pcm
$end

$pcm
theory iefpcm
$end 
$solvent
dielectric 7 
$end

$molecule
0 1 
 O     0.000000     0.000000     0.000000
 H     0.000000     0.000000     1.008000
 H     0.950353     0.000000    -0.335996
$end

