%maxcore 1700
%pal nprocs 4 end
!PBEh-3c RIJCOSX 

*xyzfile 0 1 gsopt.xyz 

