$rem
threads 8
jobtype	opt
method PBEh-3c
basis def2-mSVP
mem_static	1024
mem_total	14000
sym_ignore	true
cis_n_roots             5
cis_singlets            false
cis_triplets		true
rpa                     false
cis_state_deriv         4
state_follow		true
$end

$molecule 
read gsopt.mol
$end


