$molecule
read Cz.mol
$end

$rem
threads 4
jobtype	opt
method PBEh-3c
basis def2-mSVP
mem_static	512
mem_total	3000
sym_ignore	true
$end

