$rem
threads 8
jobtype	sp
method PBEh-3c
basis def2-mSVP
mem_static	1024
mem_total	14000
sym_ignore	true
cis_n_roots             3
cis_singlets            false
cis_triplets		true
rpa                     false
state_analysis 		true
make_cube_files		true
cis_moments		true
sym_ignore              true
$end

$plots
att. det. elec. hole and diff. dens for utleopt_tol.out
158 -9.79 10.01
84 -6.59 5.87
169 -11.94 9.03
0 0 0 2
1 2
$end


$molecule
0 1
C        -0.0092362327   -0.3555775946    0.0322759517
C        -0.0036577663   -0.3694058964    1.4397631282
H         0.9425467478   -0.4014262591    1.9683587677
C        -1.1874085828   -0.3399361797    2.1398319358
C        -1.4846428139   -0.3443261013    3.5743229770
C        -0.7436021556   -0.3780957242    4.7261238901
H         0.3385935133   -0.4108246281    4.7096976811
C        -1.4252974036   -0.3701443374    5.9671058089
H        -0.8390595865   -0.3970465417    6.8763631467
C        -2.7975943886   -0.3302808435    6.0602146384
H        -3.2721473056   -0.3259159222    7.0338370918
C        -2.8884689556   -0.3038979957    3.6830588522
C        -3.5873029948   -0.2954237022    4.8854915183
C        -3.5037690548   -0.2738528725    2.4168851412
C        -4.8720259786   -0.2321314587    2.3457229305
H        -5.3955495152   -0.2064721727    1.3977705920
C        -5.6083286979   -0.2224350762    3.5533899228
H        -6.6889244359   -0.1897060180    3.5001504639
C        -5.0001736252   -0.2529452299    4.7874334635
H        -5.6057809602   -0.2440860704    5.6854336233
C        -2.4226797909   -0.2969104113    1.4360265568
C        -2.4477114358   -0.2866075155    0.0600243758
H        -3.3946013216   -0.2597376715   -0.4685434821
C        -1.2480259094   -0.3124536323   -0.6707334480
B         1.3341287919   -0.3912390740   -0.7293116261
B        -1.2989681096   -0.3014962835   -2.2206304643
C         1.3222203180   -0.3453362647   -2.2670261714
C         2.5230314940   -0.3710881705   -2.9695019644
H         3.4593810805   -0.4250683723   -2.4259568953
C         2.5276520795   -0.3325431696   -4.3505586840
C         3.5731784567   -0.3468640484   -5.3190159694
C         4.9601140716   -0.4011752447   -5.2773080520
H         5.4983504714   -0.4440340658   -4.3396633544
C         5.6602827030   -0.4027739614   -6.4919732305
H         6.7413493503   -0.4456218698   -6.4655081544
C         5.0285188333   -0.3536848437   -7.7247075035
H         5.6203395096   -0.3588248082   -8.6315465106
C         2.9382356981   -0.2968585925   -6.5855907933
C         3.6165752309   -0.2989856719   -7.8035529085
C         1.5216418406   -0.2509137142   -6.4729124672
C         0.7584425095   -0.2025896166   -7.6374428822
H        -0.3227395557   -0.1657603868   -7.6055933092
C         1.4268457472   -0.2027786168   -8.8665845055
H         0.8410937784   -0.1652982880   -9.7760646823
C         2.8101677438   -0.2495245158   -8.9677685566
H         3.2745703959   -0.2486476956   -9.9460687420
C         1.2302017925   -0.2734498010   -5.0882952989
C         0.0303727424   -0.2615411094   -4.3853015185
H        -0.9098396478   -0.2295104553   -4.9253307309
C         0.0286256030   -0.2979642182   -3.0018547292
C         2.7039210260   -0.4997188831    0.0352213963
C         3.5059282346    0.6252460490    0.2488006875
C         4.7224373392    0.5164305472    0.9219480161
H         5.3131241213    1.4119603507    1.0726151398
C         5.1562099637   -0.7183476306    1.3862988525
O         6.3168530872   -0.9222178315    2.0450716265
C         4.3644786425   -1.8436436816    1.1744053280
H         4.7099209190   -2.8058550071    1.5365821106
C         3.1526229303   -1.7439380862    0.5107557286
C         7.1485938210    0.1837408722    2.2913242006
H         8.0171012533   -0.1931984592    2.8272006370
H         7.4897476375    0.6593730275    1.3665419738
H         6.6586121133    0.9406171247    2.9116757478
C         3.0477837673    1.9934814522   -0.1887444809
H         2.4813776828    1.9244991293   -1.1210836718
H         3.9169107326    2.6175313288   -0.4124860341
C         2.3600622435   -3.0036613146    0.2630237789
H         1.2886003132   -2.7893808070    0.2767464636
H         2.5344577618   -3.7090233890    1.0792820445
C         2.1880050243    2.6856924015    0.8668725993
H         1.2797337394    2.1186596104    1.0717089434
H         1.8884010400    3.6805461354    0.5350601995
H         2.7308290243    2.7932172729    1.8066496981
C         2.7209863423   -3.6733252313   -1.0619838996
H         2.5089057126   -3.0201066398   -1.9086547945
H         3.7808324039   -3.9279704656   -1.0978314058
H         2.1500431738   -4.5921351385   -1.2026368521
C        -2.6736891276   -0.3142500763   -2.9956254373
C        -3.1975239441   -1.5128726379   -3.4903339614
C        -4.4073255864   -1.5369018924   -4.1834874824
H        -4.7757479743   -2.4895096734   -4.5454896822
C        -5.1183982178   -0.3645586850   -4.3935288265
O        -6.2963174971   -0.2901639706   -5.0492531725
C        -4.6073659308    0.8341562720   -3.9050946265
H        -5.1639572637    1.7499981432   -4.0722876107
C        -3.4050178704    0.8660453057   -3.2170584737
C        -6.8611400595   -1.4769177280   -5.5497052602
H        -7.7964297369   -1.1978791779   -6.0302883722
H        -7.0792775368   -2.1984627795   -4.7562392562
H        -6.2195326666   -1.9606521044   -6.2927548519
C        -2.8743746796    2.2048775957   -2.7742888466
H        -3.7072309823    2.8484368593   -2.4798735552
H        -2.2503584913    2.0942589646   -1.8839941723
C        -2.5133191785   -2.8327746673   -3.2364214908
H        -1.4388043031   -2.6874137275   -3.1030440176
H        -2.6220404788   -3.4767658715   -4.1133783686
C        -2.0711962389    2.8946017785   -3.8752027077
H        -1.2015139572    2.3015431172   -4.1590219674
H        -2.6783740692    3.0410218961   -4.7693051475
H        -1.7141290240    3.8714692487   -3.5470633030
C        -3.0810092375   -3.5462822942   -2.0113083382
H        -2.9520499537   -2.9432875135   -1.1120612122
H        -4.1477480202   -3.7413772882   -2.1289367850
H        -2.5812572113   -4.5016918121   -1.8468979802
$end
