$rem
threads 8
jobtype	opt
method PBEh-3c
basis def2-mSVP
mem_static	512
mem_total	6096
sym_ignore	true
solvent_method  pcm
$end

$pcm
theory iefpcm
$end 
$solvent
dielectric 36
$end

$molecule
0 1
 C     0.000000     0.000000     0.000000
 H     0.000000     0.000000     1.089000
 H     1.026720     0.000000    -0.362996
 C    -0.683537    -1.183920    -0.483333
 H    -0.513360     0.889165    -0.363000
 N    -1.247410    -2.160577    -0.860042
$end

