$rem
threads 8
jobtype	sp
method PBEh-3c
basis def2-mSVP
mem_static	1024
mem_total	14000
sym_ignore	true
cis_n_roots             6
cis_singlets            false
cis_triplets		true 
rpa                     false
state_analysis 		true
make_cube_files		true
cis_moments		true
sym_ignore              true
$end


$plots
att. det. elec. hole and diff. dens for gsopt.out
113 -6.01 9.35
139 -14.71 3.23
82 -3.91 8.37
0 0 0 2
1 2
$end


$molecule
0 1
C         0.1259330406   -4.5856407007    1.0666232976
C         0.0042700506   -4.4430353632    2.5853123735
C         1.5854549421   -4.1736596265    0.8712394581
C         2.2917826359   -4.1380065184   -0.3139290275
H         1.8175544917   -4.3980853921   -1.2526397491
C         3.6301865853   -3.7679806962   -0.2776947208
H         4.2013571834   -3.7302947589   -1.1958721989
C         4.2415515143   -3.4488987935    0.9300099326
H         5.2862599469   -3.1684483766    0.9418017932
C         3.5289743835   -3.4893774555    2.1194113027
H         4.0155700776   -3.2477721231    3.0554001202
C         2.1909662447   -3.8521846880    2.0835528102
C        -1.1046767133   -4.6826633207    3.3699493496
H        -2.0350022192   -5.0238586746    2.9329118344
C        -1.0085439523   -4.4777285629    4.7398934136
H        -1.8670717723   -4.6613228642    5.3719033196
C         0.1831588990   -4.0391147503    5.3053972217
H         0.2419061104   -3.8843245150    6.3743221968
C         1.2973213359   -3.7996709298    4.5147489287
H         2.2225509948   -3.4611180066    4.9629447745
C         1.2017454528   -4.0029771858    3.1471645391
C        -2.1162244323   -3.7716021406    0.0064241153
C        -2.9067215009   -2.7016639022   -0.4007682177
H        -3.9107378075   -2.8960224640   -0.7550073323
C        -2.4516072589   -1.3953468799   -0.3790529077
C        -3.3057151604   -0.3402336095   -0.8139675622
N        -4.0175422979    0.4903722477   -1.1716617515
C        -0.8121876488   -3.5356785700    0.4566299005
C        -0.3600504550   -2.2162182067    0.4709948028
H         0.6400473034   -1.9937152962    0.8130460102
C        -1.1493619097   -1.1535076527    0.0626404758
C        -0.6212140124    0.1704374324    0.0956618228
N        -0.1839688482    1.2344759592    0.1248001860
H         5.6585794489   -6.2629635507    0.2282109434
H         7.3522424556   -7.8003251968    1.2081941998
C         5.3551095127   -7.1768010360    0.7221651881
C         6.2972003589   -8.0316990766    1.2660241943
C         4.0058130303   -7.4679938766    0.8193169910
H         3.2928481777   -6.7730182842    0.3995660474
C         5.8743709085   -9.2063501358    1.8692017256
H         6.6192382993   -9.8839079118    2.2629713620
C         3.5837623954   -8.6315055146    1.4608270893
C         4.5302602539   -9.5410500360    1.9521786941
N         2.2262839709   -8.9328679807    1.6358187693
C         2.7551345767  -10.6683765003    3.2150967108
C         1.8407268205   -9.7355689591    2.7129162094
H         3.0893214195  -12.1296353954    4.7427683933
C         2.3932653626  -11.4135446904    4.3281364628
C         0.5756919222   -9.6155009909    3.2864154734
C         1.1425168011  -11.2869575469    4.9135771785
C         0.2302783761  -10.3959996698    4.3759339661
H        -0.1392344735   -8.9068864660    2.8918918306
H         0.8825620340  -11.8896409172    5.7733079585
H        -0.7551495669  -10.2921264179    4.8110190746
C         4.0327011018  -10.8926743604    2.4320444594
C         5.0806186676  -11.6489345193    3.2412403098
C         3.6829814061  -11.7441296591    1.1924053189
C         1.2373184061   -8.1779060967    0.9600833316
C         0.5232951342   -8.7469492730   -0.0834753805
C        -0.4402690186   -7.9902377577   -0.7134082454
C        -0.6892224098   -6.6559555835   -0.3769866267
C         0.0594605082   -6.0672731261    0.6440311619
C         0.9750007401   -6.8743854386    1.3244019515
H         1.5405370752   -6.4678495454    2.1524140667
H         0.7117665104   -9.7706885717   -0.3789908833
H        -1.0284081051   -8.4407387958   -1.5038823072
C        -1.8166428242   -5.9767694184   -1.0999995025
C        -2.6864834312   -5.1468920033   -0.1610290282
H        -2.4304083557   -6.7459481258   -1.5718684105
H        -1.4528265221   -5.3452256949   -1.9160616376
H        -2.7891731483   -5.6653547971    0.7958175961
H        -3.6946247462   -5.0622119618   -0.5688497709
H         2.9354737445  -11.2595017592    0.5652631398
H         3.2838587832  -12.7125856367    1.4992041288
H         4.5716699564  -11.9136937794    0.5820210352
H         5.3650581554  -11.1119051506    4.1467600354
H         5.9786656018  -11.8256193215    2.6498963293
H         4.7123354823  -12.6336330850    3.5289799549
$end
