$rem
threads 8
jobtype	sp
method PBEh-3c
basis def2-mSVP
mem_static	1024
mem_total	14000
sym_ignore	true
cis_n_roots             6
cis_singlets            false
cis_triplets		true
rpa                     false
state_analysis 		true
make_cube_files		true
cis_moments		true
sym_ignore              true
$end


$plots
att. det. elec. hole and diff. dens for t1opt.out
113 -6.00 9.36
139 -14.71 3.21
82 -3.90 8.37
0 0 0 2
1 2
$end


$molecule
0 1
C         0.1216520911   -4.5922121483    1.0592652620
C        -0.0209801681   -4.4375896146    2.5741159061
C         1.5825482172   -4.1699411176    0.8838027992
C         2.3231288818   -4.1729648745   -0.2587479169
H         1.8928906626   -4.4919838222   -1.2005749983
C         3.6687233328   -3.7589834992   -0.2020674165
H         4.2657032042   -3.7439717145   -1.1028127142
C         4.2429670735   -3.3516488129    1.0296831200
H         5.2794248618   -3.0417180064    1.0434898840
C         3.5220536522   -3.3450172837    2.1872930431
H         3.9749379827   -3.0408373633    3.1209606904
C         2.1520052281   -3.7660001194    2.1499650932
C        -1.0949012872   -4.7282718946    3.3570824329
H        -2.0005204899   -5.1429480987    2.9320649118
C        -1.0224395778   -4.4798524670    4.7417728128
H        -1.8699163135   -4.7017440382    5.3742016556
C         0.1565928167   -3.9330729566    5.3132686110
H         0.1803543784   -3.7468814149    6.3787032557
C         1.2497850424   -3.6439497957    4.5529367909
H         2.1438939205   -3.2310891989    4.9997544598
C         1.1985559692   -3.8997641805    3.1427546856
C        -2.1232556120   -3.7790680920    0.0059802404
C        -2.9085551368   -2.7108454944   -0.4113636314
H        -3.9175820435   -2.9019593053   -0.7529799670
C        -2.4409146717   -1.4073031396   -0.4177774728
C        -3.2915941875   -0.3522037609   -0.8589971499
N        -4.0008691336    0.4788415343   -1.2208908952
C        -0.8115530078   -3.5458065475    0.4373679241
C        -0.3453474162   -2.2315199438    0.4197265467
H         0.6605299807   -2.0106941239    0.7449658268
C        -1.1310843776   -1.1690934709    0.0008916463
C        -0.5905866954    0.1502529382    0.0022951405
N        -0.1420983444    1.2100121722    0.0065351222
H         5.6810152604   -6.2763448622    0.2401126884
H         7.3681258118   -7.8492780631    1.1731895493
C         5.3726059929   -7.1941504924    0.7237012201
C         6.3112207896   -8.0689626408    1.2413507932
C         4.0212857034   -7.4708204756    0.8344746501
H         3.3107488838   -6.7611371955    0.4359981469
C         5.8821514025   -9.2479601935    1.8315461439
H         6.6239479022   -9.9406996394    2.2041504209
C         3.5937615952   -8.6391643923    1.4628931671
C         4.5352545668   -9.5677172206    1.9273725469
N         2.2356132845   -8.9273509767    1.6513872884
C         2.7631531130  -10.6944128779    3.1953302844
C         1.8544481165   -9.7417540276    2.7211611132
H         3.0979907003  -12.1855504255    4.6944128070
C         2.4064518066  -11.4532642903    4.3008268024
C         0.5996475310   -9.6132294931    3.3148016484
C         1.1655939589  -11.3196687562    4.9053926038
C         0.2584453127  -10.4071186623    4.3959129019
H        -0.1102677222   -8.8876728233    2.9425280849
H         0.9090739909  -11.9334587037    5.7582786968
H        -0.7191236287  -10.2969314787    4.8468988019
C         4.0271672355  -10.9210970565    2.3914400334
C         5.0755619781  -11.7041748620    3.1738751657
C         3.6507957761  -11.7474025278    1.1426029913
C         1.2424375287   -8.1761113741    0.9783374818
C         0.5111544491   -8.7595697086   -0.0453146436
C        -0.4632114316   -8.0137650283   -0.6728074633
C        -0.7091011551   -6.6755865560   -0.3526506610
C         0.0569573463   -6.0719002988    0.6464955561
C         0.9863443995   -6.8659553682    1.3256706670
H         1.5629260141   -6.4453963624    2.1397503735
H         0.6945395846   -9.7879904787   -0.3276563625
H        -1.0618867978   -8.4775699197   -1.4476142129
C        -1.8466944120   -6.0051347519   -1.0682340587
C        -2.7017381321   -5.1540651116   -0.1337163206
H        -2.4702340251   -6.7806332841   -1.5163820069
H        -1.4926431101   -5.3901500822   -1.9010160819
H        -2.7987036831   -5.6560477605    0.8323667110
H        -3.7132788662   -5.0708531712   -0.5333748777
H         2.9018492526  -11.2434499105    0.5326110746
H         3.2431952325  -12.7156724964    1.4386447297
H         4.5293481619  -11.9181741223    0.5180403860
H         5.3786548975  -11.1862372118    4.0844293643
H         5.9633920677  -11.8825683917    2.5678383085
H         4.6979434840  -12.6886678182    3.4500187873
$end
